"file data/sdpa_8.dat-s generated by ncpol2sdpa"
665 = number of vars
33 = number of blocs
(36, 1, 1, 1, 1, 1, 1, 1, 1, 1, 1, 1, 1, 1, 1, 1, 1, 1, 1, 1, 1, 1, 1, 1, 1, 1, 1, 1, 1, 1, 1, 1, 1) = BlocStructure
{0, 0, 0.5851160955130559, 0.5036288874626764, 0.4240223966071288, 1.4205743954143695, 0.424209065492272, -0.007067132018420241, -0.5415550700607309, -0.9482446676860963, 0, 0, 0, 0, 0, 0, 0, 0, 0, 0, 0, 0, 0, 0, 0, 0, 0, 0, 0, 0, 0, 0, 0, 0, 0, 0, 0, 0, 0, 0, 0, 0, 0, 0, 0, 0, 0, 0, 0, 0, 0, 0, 0, 0, 0, 0, 0, 0, 0, 0, 0, 0, 0, 0, 0, 0, 0, 0, 0, 0, 0, 0, 0, 0, 0, 0, 0, 0, 0, 0, 0, 0, 0, 0, 0, 0, 0, 0, 0, 0, 0, 0, 0, 0, 0, 0, 0, 0, 0, 0, 0, 0, 0, 0, 1.0, 0, 0, 0, 0, 0, 0, 0, 0, 0, 0, 0, 0, 0, 0, 0, 0, 0, 0, 0, 0, 0, 0, 0, 0, 0, 0, 0, 0, 0, 0, 0, 0, 1.0, 0, 0, 0, 0, 0, 0, 0, 0, 0, 0, 0, 0, 0, 0, 0, 0, 0, 0, 0, 0, 0, 0, 0, 0, 0, 0, 0, 0, 0, 0, 0, 1.0, 0, 0, 0, 0, 0, 0, 0, 0, 0, 0, 0, 0, 0, 0, 0, 0, 0, 0, 0, 0, 0, 0, 0, 0, 0, 0, 0, 0, 0, 0, 1.0, 0, 0, 0, 0, 0, 0, 0, 0, 0, 0, 0, 0, 0, 0, 0, 0, 0, 0, 0, 0, 0, 0, 0, 0, 0, 0, 0, 0, 0, 1.0, 0, 0, 0, 0, 0, 0, 0, 0, 0, 0, 0, 0, 0, 0, 0, 0, 0, 0, 0, 0, 0, 0, 0, 0, 0, 0, 0, 0, 1.0, 0, 0, 0, 0, 0, 0, 0, 0, 0, 0, 0, 0, 0, 0, 0, 0, 0, 0, 0, 0, 0, 0, 0, 0, 0, 0, 0, 1.0, 0, 0, 0, 0, 0, 0, 0, 0, 0, 0, 0, 0, 0, 0, 0, 0, 0, 0, 0, 0, 0, 0, 0, 0, 0, 0, 1.0, 0, 0, 0, 0, 0, 0, 0, 0, 0, 0, 0, 0, 0, 0, 0, 0, 0, 0, 0, 0, 0, 0, 0, 0, 0, 0.0005, 0, 0, 0, 0, 0, 0, 0, 0, 0, 0, 0, 0, 0, 0, 0, 0, 0, 0, 0, 0, 0, 0, 0, 0, 0.0005, 0, 0, 0, 0, 0, 0, 0, 0, 0, 0, 0, 0, 0, 0, 0, 0, 0, 0, 0, 0, 0, 0, 0, 0.0005, 0, 0, 0, 0, 0, 0, 0, 0, 0, 0, 0, 0, 0, 0, 0, 0, 0, 0, 0, 0, 0, 0, 0.0005, 0, 0, 0, 0, 0, 0, 0, 0, 0, 0, 0, 0, 0, 0, 0, 0, 0, 0, 0, 0, 0, 0.0005, 0, 0, 0, 0, 0, 0, 0, 0, 0, 0, 0, 0, 0, 0, 0, 0, 0, 0, 0, 0, 0.0005, 0, 0, 0, 0, 0, 0, 0, 0, 0, 0, 0, 0, 0, 0, 0, 0, 0, 0, 0, 0.0005, 0, 0, 0, 0, 0, 0, 0, 0, 0, 0, 0, 0, 0, 0, 0, 0, 0, 0, 0.0005, 0, 0, 0, 0, 0, 0, 0, 0, 0, 0, 0, 0, 0, 0, 0, 0, 0, 0, 0, 0, 0, 0, 0, 0, 0, 0, 0, 0, 0, 0, 0, 0, 0, 0, 0, 0, 0, 0, 0, 0, 0, 0, 0, 0, 0, 0, 0, 0, 0, 0, 0, 0, 0, 0, 0, 0, 0, 0, 0, 0, 0, 0, 0, 0, 0, 0, 0, 0, 0, 0, 0, 0, 0, 0, 0, 0, 0, 0, 0, 0, 0, 0, 0, 0, 0, 0, 0, 0, 0, 0, 0, 0, 0, 0, 0, 0, 0, 0, 0, 0, 0, 0, 0, 0, 0, 0, 0, 0, 0, 0, 0, 0, 0, 0, 0, 0, 0, 0, 0, 0, 0, 0, 0, 0, 0, 0, 0, 0, 0, 0, 0, 0, 0, 0, 0.0001, 0, 0, 0, 0, 0, 0, 0, 0.0001, 0, 0, 0, 0, 0, 0, 0.0001, 0, 0, 0, 0, 0, 0.0001, 0, 0, 0, 0, 0.0001, 0, 0, 0, 0.0001, 0, 0, 0.0001, 0, 0.0001}
0	1	1	1	-1.0
1	1	1	2	1.0
2	1	1	3	1.0
3	1	1	4	1.0
3	2	1	1	1.0
3	10	1	1	-1.0
4	1	1	5	1.0
4	3	1	1	1.0
4	11	1	1	-1.0
5	1	1	6	1.0
5	4	1	1	1.0
5	12	1	1	-1.0
6	1	1	7	1.0
6	5	1	1	1.0
6	13	1	1	-1.0
7	1	1	8	1.0
7	6	1	1	1.0
7	14	1	1	-1.0
8	1	1	9	1.0
8	7	1	1	1.0
8	15	1	1	-1.0
9	1	1	10	1.0
9	8	1	1	1.0
9	16	1	1	-1.0
10	1	1	11	1.0
10	9	1	1	1.0
10	17	1	1	-1.0
11	1	1	12	1.0
11	2	1	1	-1.0
11	10	1	1	1.0
12	1	1	13	1.0
12	3	1	1	-1.0
12	11	1	1	1.0
13	1	1	14	1.0
13	4	1	1	-1.0
13	12	1	1	1.0
14	1	1	15	1.0
14	5	1	1	-1.0
14	13	1	1	1.0
15	1	1	16	1.0
15	6	1	1	-1.0
15	14	1	1	1.0
16	1	1	17	1.0
16	7	1	1	-1.0
16	15	1	1	1.0
17	1	1	18	1.0
17	8	1	1	-1.0
17	16	1	1	1.0
18	1	1	19	1.0
18	9	1	1	-1.0
18	17	1	1	1.0
19	1	1	20	1.0
20	1	1	21	1.0
20	18	1	1	1.0
20	26	1	1	-1.0
21	1	1	22	1.0
21	19	1	1	1.0
21	27	1	1	-1.0
22	1	1	23	1.0
22	20	1	1	1.0
22	28	1	1	-1.0
23	1	1	24	1.0
23	21	1	1	1.0
23	29	1	1	-1.0
24	1	1	25	1.0
24	22	1	1	1.0
24	30	1	1	-1.0
25	1	1	26	1.0
25	23	1	1	1.0
25	31	1	1	-1.0
26	1	1	27	1.0
26	24	1	1	1.0
26	32	1	1	-1.0
27	1	1	28	1.0
27	25	1	1	1.0
27	33	1	1	-1.0
28	1	1	29	1.0
28	18	1	1	-1.0
28	26	1	1	1.0
29	1	1	30	1.0
29	19	1	1	-1.0
29	27	1	1	1.0
30	1	1	31	1.0
30	20	1	1	-1.0
30	28	1	1	1.0
31	1	1	32	1.0
31	21	1	1	-1.0
31	29	1	1	1.0
32	1	1	33	1.0
32	22	1	1	-1.0
32	30	1	1	1.0
33	1	1	34	1.0
33	23	1	1	-1.0
33	31	1	1	1.0
34	1	1	35	1.0
34	24	1	1	-1.0
34	32	1	1	1.0
35	1	1	36	1.0
35	25	1	1	-1.0
35	33	1	1	1.0
36	1	2	2	1.0
37	1	2	3	1.0
38	1	2	4	1.0
39	1	2	5	1.0
40	1	2	6	1.0
41	1	2	7	1.0
42	1	2	8	1.0
43	1	2	9	1.0
44	1	2	10	1.0
45	1	2	11	1.0
46	1	2	12	1.0
47	1	2	13	1.0
48	1	2	14	1.0
49	1	2	15	1.0
50	1	2	16	1.0
51	1	2	17	1.0
52	1	2	18	1.0
53	1	2	19	1.0
54	1	2	20	1.0
54	18	1	1	-1.0
54	26	1	1	1.0
55	1	2	21	1.0
55	19	1	1	-1.0
55	27	1	1	1.0
56	1	2	22	1.0
56	20	1	1	-1.0
56	28	1	1	1.0
57	1	2	23	1.0
57	21	1	1	-1.0
57	29	1	1	1.0
58	1	2	24	1.0
58	22	1	1	-1.0
58	30	1	1	1.0
59	1	2	25	1.0
59	23	1	1	-1.0
59	31	1	1	1.0
60	1	2	26	1.0
60	24	1	1	-1.0
60	32	1	1	1.0
61	1	2	27	1.0
61	25	1	1	-1.0
61	33	1	1	1.0
62	1	2	28	1.0
63	1	2	29	1.0
64	1	2	30	1.0
65	1	2	31	1.0
66	1	2	32	1.0
67	1	2	33	1.0
68	1	2	34	1.0
69	1	2	35	1.0
70	1	2	36	1.0
71	1	3	3	1.0
72	1	3	4	1.0
73	1	3	5	1.0
74	1	3	6	1.0
75	1	3	7	1.0
76	1	3	8	1.0
77	1	3	9	1.0
78	1	3	10	1.0
79	1	3	11	1.0
80	1	3	12	1.0
81	1	3	13	1.0
82	1	3	14	1.0
83	1	3	15	1.0
84	1	3	16	1.0
85	1	3	17	1.0
86	1	3	18	1.0
87	1	3	19	1.0
88	1	3	20	1.0
89	1	3	21	1.0
89	2	1	1	-1.0
89	10	1	1	1.0
90	1	3	22	1.0
90	3	1	1	-1.0
90	11	1	1	1.0
91	1	3	23	1.0
91	4	1	1	-1.0
91	12	1	1	1.0
92	1	3	24	1.0
92	5	1	1	-1.0
92	13	1	1	1.0
93	1	3	25	1.0
93	6	1	1	-1.0
93	14	1	1	1.0
94	1	3	26	1.0
94	7	1	1	-1.0
94	15	1	1	1.0
95	1	3	27	1.0
95	8	1	1	-1.0
95	16	1	1	1.0
96	1	3	28	1.0
96	9	1	1	-1.0
96	17	1	1	1.0
97	1	3	29	1.0
98	1	3	30	1.0
99	1	3	31	1.0
100	1	3	32	1.0
101	1	3	33	1.0
102	1	3	34	1.0
103	1	3	35	1.0
104	1	3	36	1.0
105	1	4	4	1.0
106	1	4	5	1.0
107	1	4	6	1.0
108	1	4	7	1.0
109	1	4	8	1.0
110	1	4	9	1.0
111	1	4	10	1.0
112	1	4	11	1.0
113	1	4	12	1.0
114	1	4	13	1.0
115	1	4	14	1.0
116	1	4	15	1.0
117	1	4	16	1.0
118	1	4	17	1.0
119	1	4	18	1.0
120	1	4	19	1.0
121	1	4	20	1.0
122	1	4	21	1.0
123	1	4	22	1.0
124	1	4	23	1.0
125	1	4	24	1.0
126	1	4	25	1.0
127	1	4	26	1.0
128	1	4	27	1.0
129	1	4	28	1.0
130	1	4	29	1.0
131	1	4	30	1.0
132	1	4	31	1.0
133	1	4	32	1.0
134	1	4	33	1.0
135	1	4	34	1.0
136	1	4	35	1.0
137	1	4	36	1.0
138	1	5	5	1.0
139	1	5	6	1.0
140	1	5	7	1.0
141	1	5	8	1.0
142	1	5	9	1.0
143	1	5	10	1.0
144	1	5	11	1.0
145	1	5	12	1.0
146	1	5	13	1.0
147	1	5	14	1.0
148	1	5	15	1.0
149	1	5	16	1.0
150	1	5	17	1.0
151	1	5	18	1.0
152	1	5	19	1.0
153	1	5	20	1.0
154	1	5	21	1.0
155	1	5	22	1.0
156	1	5	23	1.0
157	1	5	24	1.0
158	1	5	25	1.0
159	1	5	26	1.0
160	1	5	27	1.0
161	1	5	28	1.0
162	1	5	29	1.0
163	1	5	30	1.0
164	1	5	31	1.0
165	1	5	32	1.0
166	1	5	33	1.0
167	1	5	34	1.0
168	1	5	35	1.0
169	1	5	36	1.0
170	1	6	6	1.0
171	1	6	7	1.0
172	1	6	8	1.0
173	1	6	9	1.0
174	1	6	10	1.0
175	1	6	11	1.0
176	1	6	12	1.0
177	1	6	13	1.0
178	1	6	14	1.0
179	1	6	15	1.0
180	1	6	16	1.0
181	1	6	17	1.0
182	1	6	18	1.0
183	1	6	19	1.0
184	1	6	20	1.0
185	1	6	21	1.0
186	1	6	22	1.0
187	1	6	23	1.0
188	1	6	24	1.0
189	1	6	25	1.0
190	1	6	26	1.0
191	1	6	27	1.0
192	1	6	28	1.0
193	1	6	29	1.0
194	1	6	30	1.0
195	1	6	31	1.0
196	1	6	32	1.0
197	1	6	33	1.0
198	1	6	34	1.0
199	1	6	35	1.0
200	1	6	36	1.0
201	1	7	7	1.0
202	1	7	8	1.0
203	1	7	9	1.0
204	1	7	10	1.0
205	1	7	11	1.0
206	1	7	12	1.0
207	1	7	13	1.0
208	1	7	14	1.0
209	1	7	15	1.0
210	1	7	16	1.0
211	1	7	17	1.0
212	1	7	18	1.0
213	1	7	19	1.0
214	1	7	20	1.0
215	1	7	21	1.0
216	1	7	22	1.0
217	1	7	23	1.0
218	1	7	24	1.0
219	1	7	25	1.0
220	1	7	26	1.0
221	1	7	27	1.0
222	1	7	28	1.0
223	1	7	29	1.0
224	1	7	30	1.0
225	1	7	31	1.0
226	1	7	32	1.0
227	1	7	33	1.0
228	1	7	34	1.0
229	1	7	35	1.0
230	1	7	36	1.0
231	1	8	8	1.0
232	1	8	9	1.0
233	1	8	10	1.0
234	1	8	11	1.0
235	1	8	12	1.0
236	1	8	13	1.0
237	1	8	14	1.0
238	1	8	15	1.0
239	1	8	16	1.0
240	1	8	17	1.0
241	1	8	18	1.0
242	1	8	19	1.0
243	1	8	20	1.0
244	1	8	21	1.0
245	1	8	22	1.0
246	1	8	23	1.0
247	1	8	24	1.0
248	1	8	25	1.0
249	1	8	26	1.0
250	1	8	27	1.0
251	1	8	28	1.0
252	1	8	29	1.0
253	1	8	30	1.0
254	1	8	31	1.0
255	1	8	32	1.0
256	1	8	33	1.0
257	1	8	34	1.0
258	1	8	35	1.0
259	1	8	36	1.0
260	1	9	9	1.0
261	1	9	10	1.0
262	1	9	11	1.0
263	1	9	12	1.0
264	1	9	13	1.0
265	1	9	14	1.0
266	1	9	15	1.0
267	1	9	16	1.0
268	1	9	17	1.0
269	1	9	18	1.0
270	1	9	19	1.0
271	1	9	20	1.0
272	1	9	21	1.0
273	1	9	22	1.0
274	1	9	23	1.0
275	1	9	24	1.0
276	1	9	25	1.0
277	1	9	26	1.0
278	1	9	27	1.0
279	1	9	28	1.0
280	1	9	29	1.0
281	1	9	30	1.0
282	1	9	31	1.0
283	1	9	32	1.0
284	1	9	33	1.0
285	1	9	34	1.0
286	1	9	35	1.0
287	1	9	36	1.0
288	1	10	10	1.0
289	1	10	11	1.0
290	1	10	12	1.0
291	1	10	13	1.0
292	1	10	14	1.0
293	1	10	15	1.0
294	1	10	16	1.0
295	1	10	17	1.0
296	1	10	18	1.0
297	1	10	19	1.0
298	1	10	20	1.0
299	1	10	21	1.0
300	1	10	22	1.0
301	1	10	23	1.0
302	1	10	24	1.0
303	1	10	25	1.0
304	1	10	26	1.0
305	1	10	27	1.0
306	1	10	28	1.0
307	1	10	29	1.0
308	1	10	30	1.0
309	1	10	31	1.0
310	1	10	32	1.0
311	1	10	33	1.0
312	1	10	34	1.0
313	1	10	35	1.0
314	1	10	36	1.0
315	1	11	11	1.0
316	1	11	12	1.0
317	1	11	13	1.0
318	1	11	14	1.0
319	1	11	15	1.0
320	1	11	16	1.0
321	1	11	17	1.0
322	1	11	18	1.0
323	1	11	19	1.0
324	1	11	20	1.0
325	1	11	21	1.0
326	1	11	22	1.0
327	1	11	23	1.0
328	1	11	24	1.0
329	1	11	25	1.0
330	1	11	26	1.0
331	1	11	27	1.0
332	1	11	28	1.0
333	1	11	29	1.0
334	1	11	30	1.0
335	1	11	31	1.0
336	1	11	32	1.0
337	1	11	33	1.0
338	1	11	34	1.0
339	1	11	35	1.0
340	1	11	36	1.0
341	1	12	12	1.0
342	1	12	13	1.0
343	1	12	14	1.0
344	1	12	15	1.0
345	1	12	16	1.0
346	1	12	17	1.0
347	1	12	18	1.0
348	1	12	19	1.0
349	1	12	20	1.0
350	1	12	21	1.0
351	1	12	22	1.0
352	1	12	23	1.0
353	1	12	24	1.0
354	1	12	25	1.0
355	1	12	26	1.0
356	1	12	27	1.0
357	1	12	28	1.0
358	1	12	29	1.0
359	1	12	30	1.0
360	1	12	31	1.0
361	1	12	32	1.0
362	1	12	33	1.0
363	1	12	34	1.0
364	1	12	35	1.0
365	1	12	36	1.0
366	1	13	13	1.0
367	1	13	14	1.0
368	1	13	15	1.0
369	1	13	16	1.0
370	1	13	17	1.0
371	1	13	18	1.0
372	1	13	19	1.0
373	1	13	20	1.0
374	1	13	21	1.0
375	1	13	22	1.0
376	1	13	23	1.0
377	1	13	24	1.0
378	1	13	25	1.0
379	1	13	26	1.0
380	1	13	27	1.0
381	1	13	28	1.0
382	1	13	29	1.0
383	1	13	30	1.0
384	1	13	31	1.0
385	1	13	32	1.0
386	1	13	33	1.0
387	1	13	34	1.0
388	1	13	35	1.0
389	1	13	36	1.0
390	1	14	14	1.0
391	1	14	15	1.0
392	1	14	16	1.0
393	1	14	17	1.0
394	1	14	18	1.0
395	1	14	19	1.0
396	1	14	20	1.0
397	1	14	21	1.0
398	1	14	22	1.0
399	1	14	23	1.0
400	1	14	24	1.0
401	1	14	25	1.0
402	1	14	26	1.0
403	1	14	27	1.0
404	1	14	28	1.0
405	1	14	29	1.0
406	1	14	30	1.0
407	1	14	31	1.0
408	1	14	32	1.0
409	1	14	33	1.0
410	1	14	34	1.0
411	1	14	35	1.0
412	1	14	36	1.0
413	1	15	15	1.0
414	1	15	16	1.0
415	1	15	17	1.0
416	1	15	18	1.0
417	1	15	19	1.0
418	1	15	20	1.0
419	1	15	21	1.0
420	1	15	22	1.0
421	1	15	23	1.0
422	1	15	24	1.0
423	1	15	25	1.0
424	1	15	26	1.0
425	1	15	27	1.0
426	1	15	28	1.0
427	1	15	29	1.0
428	1	15	30	1.0
429	1	15	31	1.0
430	1	15	32	1.0
431	1	15	33	1.0
432	1	15	34	1.0
433	1	15	35	1.0
434	1	15	36	1.0
435	1	16	16	1.0
436	1	16	17	1.0
437	1	16	18	1.0
438	1	16	19	1.0
439	1	16	20	1.0
440	1	16	21	1.0
441	1	16	22	1.0
442	1	16	23	1.0
443	1	16	24	1.0
444	1	16	25	1.0
445	1	16	26	1.0
446	1	16	27	1.0
447	1	16	28	1.0
448	1	16	29	1.0
449	1	16	30	1.0
450	1	16	31	1.0
451	1	16	32	1.0
452	1	16	33	1.0
453	1	16	34	1.0
454	1	16	35	1.0
455	1	16	36	1.0
456	1	17	17	1.0
457	1	17	18	1.0
458	1	17	19	1.0
459	1	17	20	1.0
460	1	17	21	1.0
461	1	17	22	1.0
462	1	17	23	1.0
463	1	17	24	1.0
464	1	17	25	1.0
465	1	17	26	1.0
466	1	17	27	1.0
467	1	17	28	1.0
468	1	17	29	1.0
469	1	17	30	1.0
470	1	17	31	1.0
471	1	17	32	1.0
472	1	17	33	1.0
473	1	17	34	1.0
474	1	17	35	1.0
475	1	17	36	1.0
476	1	18	18	1.0
477	1	18	19	1.0
478	1	18	20	1.0
479	1	18	21	1.0
480	1	18	22	1.0
481	1	18	23	1.0
482	1	18	24	1.0
483	1	18	25	1.0
484	1	18	26	1.0
485	1	18	27	1.0
486	1	18	28	1.0
487	1	18	29	1.0
488	1	18	30	1.0
489	1	18	31	1.0
490	1	18	32	1.0
491	1	18	33	1.0
492	1	18	34	1.0
493	1	18	35	1.0
494	1	18	36	1.0
495	1	19	19	1.0
496	1	19	20	1.0
497	1	19	21	1.0
498	1	19	22	1.0
499	1	19	23	1.0
500	1	19	24	1.0
501	1	19	25	1.0
502	1	19	26	1.0
503	1	19	27	1.0
504	1	19	28	1.0
505	1	19	29	1.0
506	1	19	30	1.0
507	1	19	31	1.0
508	1	19	32	1.0
509	1	19	33	1.0
510	1	19	34	1.0
511	1	19	35	1.0
512	1	19	36	1.0
513	1	20	20	1.0
514	1	20	21	1.0
515	1	20	22	1.0
516	1	20	23	1.0
517	1	20	24	1.0
518	1	20	25	1.0
519	1	20	26	1.0
520	1	20	27	1.0
521	1	20	28	1.0
522	1	20	29	1.0
523	1	20	30	1.0
524	1	20	31	1.0
525	1	20	32	1.0
526	1	20	33	1.0
527	1	20	34	1.0
528	1	20	35	1.0
529	1	20	36	1.0
530	1	21	21	1.0
531	1	21	22	1.0
532	1	21	23	1.0
533	1	21	24	1.0
534	1	21	25	1.0
535	1	21	26	1.0
536	1	21	27	1.0
537	1	21	28	1.0
538	1	21	29	1.0
539	1	21	30	1.0
540	1	21	31	1.0
541	1	21	32	1.0
542	1	21	33	1.0
543	1	21	34	1.0
544	1	21	35	1.0
545	1	21	36	1.0
546	1	22	22	1.0
547	1	22	23	1.0
548	1	22	24	1.0
549	1	22	25	1.0
550	1	22	26	1.0
551	1	22	27	1.0
552	1	22	28	1.0
553	1	22	29	1.0
554	1	22	30	1.0
555	1	22	31	1.0
556	1	22	32	1.0
557	1	22	33	1.0
558	1	22	34	1.0
559	1	22	35	1.0
560	1	22	36	1.0
561	1	23	23	1.0
562	1	23	24	1.0
563	1	23	25	1.0
564	1	23	26	1.0
565	1	23	27	1.0
566	1	23	28	1.0
567	1	23	29	1.0
568	1	23	30	1.0
569	1	23	31	1.0
570	1	23	32	1.0
571	1	23	33	1.0
572	1	23	34	1.0
573	1	23	35	1.0
574	1	23	36	1.0
575	1	24	24	1.0
576	1	24	25	1.0
577	1	24	26	1.0
578	1	24	27	1.0
579	1	24	28	1.0
580	1	24	29	1.0
581	1	24	30	1.0
582	1	24	31	1.0
583	1	24	32	1.0
584	1	24	33	1.0
585	1	24	34	1.0
586	1	24	35	1.0
587	1	24	36	1.0
588	1	25	25	1.0
589	1	25	26	1.0
590	1	25	27	1.0
591	1	25	28	1.0
592	1	25	29	1.0
593	1	25	30	1.0
594	1	25	31	1.0
595	1	25	32	1.0
596	1	25	33	1.0
597	1	25	34	1.0
598	1	25	35	1.0
599	1	25	36	1.0
600	1	26	26	1.0
601	1	26	27	1.0
602	1	26	28	1.0
603	1	26	29	1.0
604	1	26	30	1.0
605	1	26	31	1.0
606	1	26	32	1.0
607	1	26	33	1.0
608	1	26	34	1.0
609	1	26	35	1.0
610	1	26	36	1.0
611	1	27	27	1.0
612	1	27	28	1.0
613	1	27	29	1.0
614	1	27	30	1.0
615	1	27	31	1.0
616	1	27	32	1.0
617	1	27	33	1.0
618	1	27	34	1.0
619	1	27	35	1.0
620	1	27	36	1.0
621	1	28	28	1.0
622	1	28	29	1.0
623	1	28	30	1.0
624	1	28	31	1.0
625	1	28	32	1.0
626	1	28	33	1.0
627	1	28	34	1.0
628	1	28	35	1.0
629	1	28	36	1.0
630	1	29	29	1.0
631	1	29	30	1.0
632	1	29	31	1.0
633	1	29	32	1.0
634	1	29	33	1.0
635	1	29	34	1.0
636	1	29	35	1.0
637	1	29	36	1.0
638	1	30	30	1.0
639	1	30	31	1.0
640	1	30	32	1.0
641	1	30	33	1.0
642	1	30	34	1.0
643	1	30	35	1.0
644	1	30	36	1.0
645	1	31	31	1.0
646	1	31	32	1.0
647	1	31	33	1.0
648	1	31	34	1.0
649	1	31	35	1.0
650	1	31	36	1.0
651	1	32	32	1.0
652	1	32	33	1.0
653	1	32	34	1.0
654	1	32	35	1.0
655	1	32	36	1.0
656	1	33	33	1.0
657	1	33	34	1.0
658	1	33	35	1.0
659	1	33	36	1.0
660	1	34	34	1.0
661	1	34	35	1.0
662	1	34	36	1.0
663	1	35	35	1.0
664	1	35	36	1.0
665	1	36	36	1.0
